3552829
185,186,92,10,192,137,7,119,175,80,74,209,71,70,42,66,0,134,183,133,18,118,224,210,211,212,164,29,188,219,172,60,79,123,122,220,51,147,78,81,167,75,149,227,145,89,108,169,45,46,47,16,194,174,157,104,105,99,98,84,94,166,173,43,59,199,184,158,63,39,3,129,26,168,37,229,28,52,53,91,103,155,115,106,100,195,86,160,204,165,101,150,222,8,191,67,128,49,178,214,107,33,6,48,117,38,126,207,162,139,95,109,110,83,20,223,102,148,1,171,120,135,180,226,13,12,27,88,225,41,221,65,198,156,111,228,61,90,21,193,36,132,146,116,182,34,35,4,32,87,44,217,205,68,121,112,64,203,136,114,202,216,141,40,97,72,159,176,177,161,22,85,125,213,190,138,196,208,50,200,2,124,181,24,5,56,153,96,93,154,25,82,54,152,11,55,189,23,130,131,58,57,187,127,140,69,151,142,9,113,143,144,14,15,197,163,17,215,201,218,76,30,206,73,62,31,19,77,179,170
